files/upTests/__failed/b3/0003.eprime
language ESSENCE' 1.0

find x_Occurrence: matrix indexed by [int(0..9)] of bool
such that
    (sum v__0 : int(0..9) . x_Occurrence[v__0]) <= 1,
    x_Occurrence[2] = true
