files/upTests/__failed/b3/0003.eprime.solution
language ESSENCE' 1.0
$ minion Nodes: 1
$ minion TotalTime: 0.000685
$ Savile Row TotalTime: 0.271
letting x_Occurrence be [false, false, true, false, false, false, false, false, false, false;int(0..9)]
